25
8.15 37.19
7.79 38.65
6.79 39.78
5.38 40.32
3.88 40.14
2.64 39.28
1.94 37.94
1.94 36.44
2.64 35.1
3.88 34.24
5.38 34.06
6.79 34.6
7.79 35.73
99.42 10.1
99.42 16.96
99.42 15.59
99.42 14.22
99.42 12.84
99.42 11.47
48.41 21.2
87.72 22.53
46.83 15.56
49.06 17.38
26.84 45.8
4.66 23.4
